peakDumbCharging = 33300; 
Machine = anon_enum(16); 
machineSpeed = [3700,3700,3700,3700,3700,3700,3700,3700,3700,3700,3700,3700,3700,3700,3700,3700]; 
machineLoad = [3700,3700,3700,3700,3700,3700,3700,3700,3700,3700,3700,3700,3700,3700,3700,3700]; 
Car = anon_enum(44); 
demandCar = [4760,10960,4320,1720,2920,10320,5680,24720,23680,12000,6920,12640,12480,5080,10680,10120,10040,10120,5600,30320,9320,18160,4080,1000,6920,12080,12360,1360,33600,14160,160,1360,3160,5880,10040,1720,4240,14280,18400,6640,4840,4960,13680,12800]; 
arrivalCar = [75,72,68,68,67,67,63,62,62,60,60,58,58,56,54,54,52,51,50,49,47,47,47,46,45,44,44,44,43,43,42,42,41,39,39,38,37,37,37,37,37,34,33,31]; 
departureCar = [78,77,73,70,70,72,68,73,69,66,64,63,63,60,60,59,59,55,54,63,52,57,49,48,50,53,53,46,57,50,43,48,43,43,43,40,40,44,53,41,40,37,38,39]; 
